\Problem : vne
Minimize
obj :  + 0.7685634722576834 vs4vd10ss0sd1 + 0.7685634722576834 vs4vd10ss1sd0 + 0.2934724438652892 vs4vd10ss0sd2 + 0.2934724438652892 vs4vd10ss2sd0 + 0.3991324215469743 vs4vd10ss0sd3 + 0.3991324215469743 vs4vd10ss3sd0 + 0.507070084664721 vs4vd10ss0sd7 + 0.507070084664721 vs4vd10ss7sd0 + 0.41067471251131704 vs4vd10ss1sd2 + 0.41067471251131704 vs4vd10ss2sd1 + 0.5366258205523157 vs4vd10ss1sd5 + 0.41067471251131704 vs4vd10ss5sd1 + 0.46059902482873144 vs4vd10ss1sd6 + 0.46059902482873144 vs4vd10ss6sd1 + 1.1825653426577576 vs4vd10ss1sd8 + 3.6483318069727284 vs4vd10ss8sd1 + 0.8244488568151724 vs4vd10ss2sd3 + 0.8244488568151724 vs4vd10ss3sd2 + 0.43348997431750136 vs4vd10ss2sd4 + 0.43348997431750136 vs4vd10ss4sd2 + 1.7111085543961255 vs4vd10ss2sd6 + 1.7111085543961255 vs4vd10ss6sd2 + 0.3201878486813899 vs4vd10ss3sd4 + 0.3201878486813899 vs4vd10ss4sd3 + 0.28271155633034495 vs4vd10ss3sd7 + 0.28271155633034495 vs4vd10ss7sd3 + 0.5231341919654223 vs4vd10ss3sd8 + 0.5231341919654223 vs4vd10ss8sd3 + 0.6761236235739496 vs4vd10ss4sd5 + 1.52526082391261 vs4vd10ss5sd4 + 0.3853897773639905 vs4vd10ss4sd7 + 0.32081624417686055 vs4vd10ss7sd4 + 1.5067513590070392 vs4vd10ss4sd9 + 1.0364843761438807 vs4vd10ss9sd4 + 0.40591333036472393 vs4vd10ss5sd6 + 0.40591333036472393 vs4vd10ss6sd5 + 0.6665242151313039 vs4vd10ss5sd9 + 0.48266230125384807 vs4vd10ss9sd5 + 0.38561215283799727 vs4vd10ss5sd10 + 0.565008342504691 vs4vd10ss10sd5 + 1.097300936583095 vs4vd10ss6sd10 + 1.097300936583095 vs4vd10ss10sd6 + 0.750315704977253 vs4vd10ss7sd8 + 0.5390702371014509 vs4vd10ss8sd7 + 1.3249641666468104 vs4vd10ss7sd9 + 1.3249641666468104 vs4vd10ss9sd7 + 0.33937463397398365 vs4vd10ss8sd9 + 0.34514317278304424 vs4vd10ss9sd8 + 1.7888372298713708 vs4vd10ss8sd10 + 1.7888372298713708 vs4vd10ss10sd8 + 0.3516927034814517 vs4vd10ss9sd10 + 0.27271845136379746 vs4vd10ss10sd9 + 0.7685634722576834 vs10vd4ss0sd1 + 0.7685634722576834 vs10vd4ss1sd0 + 0.2934724438652892 vs10vd4ss0sd2 + 0.2934724438652892 vs10vd4ss2sd0 + 0.3991324215469743 vs10vd4ss0sd3 + 0.3991324215469743 vs10vd4ss3sd0 + 0.507070084664721 vs10vd4ss0sd7 + 0.507070084664721 vs10vd4ss7sd0 + 0.41067471251131704 vs10vd4ss1sd2 + 0.41067471251131704 vs10vd4ss2sd1 + 0.5366258205523157 vs10vd4ss1sd5 + 0.41067471251131704 vs10vd4ss5sd1 + 0.46059902482873144 vs10vd4ss1sd6 + 0.46059902482873144 vs10vd4ss6sd1 + 1.1825653426577576 vs10vd4ss1sd8 + 3.6483318069727284 vs10vd4ss8sd1 + 0.8244488568151724 vs10vd4ss2sd3 + 0.8244488568151724 vs10vd4ss3sd2 + 0.43348997431750136 vs10vd4ss2sd4 + 0.43348997431750136 vs10vd4ss4sd2 + 1.7111085543961255 vs10vd4ss2sd6 + 1.7111085543961255 vs10vd4ss6sd2 + 0.3201878486813899 vs10vd4ss3sd4 + 0.3201878486813899 vs10vd4ss4sd3 + 0.28271155633034495 vs10vd4ss3sd7 + 0.28271155633034495 vs10vd4ss7sd3 + 0.5231341919654223 vs10vd4ss3sd8 + 0.5231341919654223 vs10vd4ss8sd3 + 0.6761236235739496 vs10vd4ss4sd5 + 1.52526082391261 vs10vd4ss5sd4 + 0.3853897773639905 vs10vd4ss4sd7 + 0.32081624417686055 vs10vd4ss7sd4 + 1.5067513590070392 vs10vd4ss4sd9 + 1.0364843761438807 vs10vd4ss9sd4 + 0.40591333036472393 vs10vd4ss5sd6 + 0.40591333036472393 vs10vd4ss6sd5 + 0.6665242151313039 vs10vd4ss5sd9 + 0.48266230125384807 vs10vd4ss9sd5 + 0.38561215283799727 vs10vd4ss5sd10 + 0.565008342504691 vs10vd4ss10sd5 + 1.097300936583095 vs10vd4ss6sd10 + 1.097300936583095 vs10vd4ss10sd6 + 0.750315704977253 vs10vd4ss7sd8 + 0.5390702371014509 vs10vd4ss8sd7 + 1.3249641666468104 vs10vd4ss7sd9 + 1.3249641666468104 vs10vd4ss9sd7 + 0.33937463397398365 vs10vd4ss8sd9 + 0.34514317278304424 vs10vd4ss9sd8 + 1.7888372298713708 vs10vd4ss8sd10 + 1.7888372298713708 vs10vd4ss10sd8 + 0.3516927034814517 vs10vd4ss9sd10 + 0.27271845136379746 vs10vd4ss10sd9
Subject To
 + vs4vd10ss4sd2 + vs4vd10ss4sd3 + vs4vd10ss4sd5 + vs4vd10ss4sd7 + vs4vd10ss4sd9 = 1
 + vs4vd10ss5sd10 + vs4vd10ss6sd10 + vs4vd10ss8sd10 + vs4vd10ss9sd10 = 1
 + vs4vd10ss1sd0 + vs4vd10ss2sd0 + vs4vd10ss3sd0 + vs4vd10ss7sd0 - vs4vd10ss0sd1 - vs4vd10ss0sd2 - vs4vd10ss0sd3 - vs4vd10ss0sd7 = 0
 + vs4vd10ss0sd1 + vs4vd10ss2sd1 + vs4vd10ss5sd1 + vs4vd10ss6sd1 + vs4vd10ss8sd1 - vs4vd10ss1sd0 - vs4vd10ss1sd2 - vs4vd10ss1sd5 - vs4vd10ss1sd6 - vs4vd10ss1sd8 = 0
 + vs4vd10ss0sd2 + vs4vd10ss1sd2 + vs4vd10ss3sd2 + vs4vd10ss4sd2 + vs4vd10ss6sd2 - vs4vd10ss2sd0 - vs4vd10ss2sd1 - vs4vd10ss2sd3 - vs4vd10ss2sd4 - vs4vd10ss2sd6 = 0
 + vs4vd10ss0sd3 + vs4vd10ss2sd3 + vs4vd10ss4sd3 + vs4vd10ss7sd3 + vs4vd10ss8sd3 - vs4vd10ss3sd0 - vs4vd10ss3sd2 - vs4vd10ss3sd4 - vs4vd10ss3sd7 - vs4vd10ss3sd8 = 0
 + vs4vd10ss1sd5 + vs4vd10ss4sd5 + vs4vd10ss6sd5 + vs4vd10ss9sd5 + vs4vd10ss10sd5 - vs4vd10ss5sd1 - vs4vd10ss5sd4 - vs4vd10ss5sd6 - vs4vd10ss5sd9 - vs4vd10ss5sd10 = 0
 + vs4vd10ss1sd6 + vs4vd10ss2sd6 + vs4vd10ss5sd6 + vs4vd10ss10sd6 - vs4vd10ss6sd1 - vs4vd10ss6sd2 - vs4vd10ss6sd5 - vs4vd10ss6sd10 = 0
 + vs4vd10ss0sd7 + vs4vd10ss3sd7 + vs4vd10ss4sd7 + vs4vd10ss8sd7 + vs4vd10ss9sd7 - vs4vd10ss7sd0 - vs4vd10ss7sd3 - vs4vd10ss7sd4 - vs4vd10ss7sd8 - vs4vd10ss7sd9 = 0
 + vs4vd10ss1sd8 + vs4vd10ss3sd8 + vs4vd10ss7sd8 + vs4vd10ss9sd8 + vs4vd10ss10sd8 - vs4vd10ss8sd1 - vs4vd10ss8sd3 - vs4vd10ss8sd7 - vs4vd10ss8sd9 - vs4vd10ss8sd10 = 0
 + vs4vd10ss4sd9 + vs4vd10ss5sd9 + vs4vd10ss7sd9 + vs4vd10ss8sd9 + vs4vd10ss10sd9 - vs4vd10ss9sd4 - vs4vd10ss9sd5 - vs4vd10ss9sd7 - vs4vd10ss9sd8 - vs4vd10ss9sd10 = 0
 + vs10vd4ss10sd5 + vs10vd4ss10sd6 + vs10vd4ss10sd8 + vs10vd4ss10sd9 = 1
 + vs10vd4ss2sd4 + vs10vd4ss3sd4 + vs10vd4ss5sd4 + vs10vd4ss7sd4 + vs10vd4ss9sd4 = 1
 + vs10vd4ss1sd0 + vs10vd4ss2sd0 + vs10vd4ss3sd0 + vs10vd4ss7sd0 - vs10vd4ss0sd1 - vs10vd4ss0sd2 - vs10vd4ss0sd3 - vs10vd4ss0sd7 = 0
 + vs10vd4ss0sd1 + vs10vd4ss2sd1 + vs10vd4ss5sd1 + vs10vd4ss6sd1 + vs10vd4ss8sd1 - vs10vd4ss1sd0 - vs10vd4ss1sd2 - vs10vd4ss1sd5 - vs10vd4ss1sd6 - vs10vd4ss1sd8 = 0
 + vs10vd4ss0sd2 + vs10vd4ss1sd2 + vs10vd4ss3sd2 + vs10vd4ss4sd2 + vs10vd4ss6sd2 - vs10vd4ss2sd0 - vs10vd4ss2sd1 - vs10vd4ss2sd3 - vs10vd4ss2sd4 - vs10vd4ss2sd6 = 0
 + vs10vd4ss0sd3 + vs10vd4ss2sd3 + vs10vd4ss4sd3 + vs10vd4ss7sd3 + vs10vd4ss8sd3 - vs10vd4ss3sd0 - vs10vd4ss3sd2 - vs10vd4ss3sd4 - vs10vd4ss3sd7 - vs10vd4ss3sd8 = 0
 + vs10vd4ss1sd5 + vs10vd4ss4sd5 + vs10vd4ss6sd5 + vs10vd4ss9sd5 + vs10vd4ss10sd5 - vs10vd4ss5sd1 - vs10vd4ss5sd4 - vs10vd4ss5sd6 - vs10vd4ss5sd9 - vs10vd4ss5sd10 = 0
 + vs10vd4ss1sd6 + vs10vd4ss2sd6 + vs10vd4ss5sd6 + vs10vd4ss10sd6 - vs10vd4ss6sd1 - vs10vd4ss6sd2 - vs10vd4ss6sd5 - vs10vd4ss6sd10 = 0
 + vs10vd4ss0sd7 + vs10vd4ss3sd7 + vs10vd4ss4sd7 + vs10vd4ss8sd7 + vs10vd4ss9sd7 - vs10vd4ss7sd0 - vs10vd4ss7sd3 - vs10vd4ss7sd4 - vs10vd4ss7sd8 - vs10vd4ss7sd9 = 0
 + vs10vd4ss1sd8 + vs10vd4ss3sd8 + vs10vd4ss7sd8 + vs10vd4ss9sd8 + vs10vd4ss10sd8 - vs10vd4ss8sd1 - vs10vd4ss8sd3 - vs10vd4ss8sd7 - vs10vd4ss8sd9 - vs10vd4ss8sd10 = 0
 + vs10vd4ss4sd9 + vs10vd4ss5sd9 + vs10vd4ss7sd9 + vs10vd4ss8sd9 + vs10vd4ss10sd9 - vs10vd4ss9sd4 - vs10vd4ss9sd5 - vs10vd4ss9sd7 - vs10vd4ss9sd8 - vs10vd4ss9sd10 = 0
 + 22.72181049382615 vs4vd10ss0sd1 + 22.72181049382615 vs10vd4ss0sd1 <= 29.564
 + 22.72181049382615 vs4vd10ss1sd0 + 22.72181049382615 vs10vd4ss1sd0 <= 29.564
 + 22.72181049382615 vs4vd10ss0sd2 + 22.72181049382615 vs10vd4ss0sd2 <= 77.424
 + 22.72181049382615 vs4vd10ss2sd0 + 22.72181049382615 vs10vd4ss2sd0 <= 77.424
 + 22.72181049382615 vs4vd10ss0sd3 + 22.72181049382615 vs10vd4ss0sd3 <= 56.928
 + 22.72181049382615 vs4vd10ss3sd0 + 22.72181049382615 vs10vd4ss3sd0 <= 56.928
 + 22.72181049382615 vs4vd10ss0sd7 + 22.72181049382615 vs10vd4ss0sd7 <= 44.81
 + 22.72181049382615 vs4vd10ss7sd0 + 22.72181049382615 vs10vd4ss7sd0 <= 44.81
 + 22.72181049382615 vs4vd10ss1sd2 + 22.72181049382615 vs10vd4ss1sd2 <= 55.328
 + 22.72181049382615 vs4vd10ss2sd1 + 22.72181049382615 vs10vd4ss2sd1 <= 55.328
 + 22.72181049382615 vs4vd10ss1sd5 + 22.72181049382615 vs10vd4ss1sd5 <= 42.342
 + 22.72181049382615 vs4vd10ss5sd1 + 22.72181049382615 vs10vd4ss5sd1 <= 55.328
 + 22.72181049382615 vs4vd10ss1sd6 + 22.72181049382615 vs10vd4ss1sd6 <= 49.331
 + 22.72181049382615 vs4vd10ss6sd1 + 22.72181049382615 vs10vd4ss6sd1 <= 49.331
 + 22.72181049382615 vs4vd10ss1sd8 + 22.72181049382615 vs10vd4ss1sd8 <= 19.214
 + 22.72181049382615 vs4vd10ss8sd1 + 22.72181049382615 vs10vd4ss8sd1 <= 6.228
 + 22.72181049382615 vs4vd10ss2sd3 + 22.72181049382615 vs10vd4ss2sd3 <= 27.56
 + 22.72181049382615 vs4vd10ss3sd2 + 22.72181049382615 vs10vd4ss3sd2 <= 27.56
 + 22.72181049382615 vs4vd10ss2sd4 + 22.72181049382615 vs10vd4ss2sd4 <= 52.416
 + 22.72181049382615 vs4vd10ss4sd2 + 22.72181049382615 vs10vd4ss4sd2 <= 52.416
 + 22.72181049382615 vs4vd10ss2sd6 + 22.72181049382615 vs10vd4ss2sd6 <= 13.279
 + 22.72181049382615 vs4vd10ss6sd2 + 22.72181049382615 vs10vd4ss6sd2 <= 13.279
 + 22.72181049382615 vs4vd10ss3sd4 + 22.72181049382615 vs10vd4ss3sd4 <= 70.964
 + 22.72181049382615 vs4vd10ss4sd3 + 22.72181049382615 vs10vd4ss4sd3 <= 70.964
 + 22.72181049382615 vs4vd10ss3sd7 + 22.72181049382615 vs10vd4ss3sd7 <= 80.371
 + 22.72181049382615 vs4vd10ss7sd3 + 22.72181049382615 vs10vd4ss7sd3 <= 80.371
 + 22.72181049382615 vs4vd10ss3sd8 + 22.72181049382615 vs10vd4ss3sd8 <= 43.434
 + 22.72181049382615 vs4vd10ss8sd3 + 22.72181049382615 vs10vd4ss8sd3 <= 43.434
 + 22.72181049382615 vs4vd10ss4sd5 + 22.72181049382615 vs10vd4ss4sd5 <= 33.606
 + 22.72181049382615 vs4vd10ss5sd4 + 22.72181049382615 vs10vd4ss5sd4 <= 14.897
 + 22.72181049382615 vs4vd10ss4sd7 + 22.72181049382615 vs10vd4ss4sd7 <= 58.958
 + 22.72181049382615 vs4vd10ss7sd4 + 22.72181049382615 vs10vd4ss7sd4 <= 70.825
 + 22.72181049382615 vs4vd10ss4sd9 + 22.72181049382615 vs10vd4ss4sd9 <= 15.08
 + 22.72181049382615 vs4vd10ss9sd4 + 22.72181049382615 vs10vd4ss9sd4 <= 21.922
 + 22.72181049382615 vs4vd10ss5sd6 + 22.72181049382615 vs10vd4ss5sd6 <= 55.977
 + 22.72181049382615 vs4vd10ss6sd5 + 22.72181049382615 vs10vd4ss6sd5 <= 55.977
 + 22.72181049382615 vs4vd10ss5sd9 + 22.72181049382615 vs10vd4ss5sd9 <= 34.09
 + 22.72181049382615 vs4vd10ss9sd5 + 22.72181049382615 vs10vd4ss9sd5 <= 47.076
 + 22.72181049382615 vs4vd10ss5sd10 + 22.72181049382615 vs10vd4ss5sd10 <= 58.924
 + 22.72181049382615 vs4vd10ss10sd5 + 22.72181049382615 vs10vd4ss10sd5 <= 40.215
 + 22.72181049382615 vs4vd10ss6sd10 + 22.72181049382615 vs10vd4ss6sd10 <= 20.707
 + 22.72181049382615 vs4vd10ss10sd6 + 22.72181049382615 vs10vd4ss10sd6 <= 20.707
 + 22.72181049382615 vs4vd10ss7sd8 + 22.72181049382615 vs10vd4ss7sd8 <= 30.283
 + 22.72181049382615 vs4vd10ss8sd7 + 22.72181049382615 vs10vd4ss8sd7 <= 42.15
 + 22.72181049382615 vs4vd10ss7sd9 + 22.72181049382615 vs10vd4ss7sd9 <= 17.149
 + 22.72181049382615 vs4vd10ss9sd7 + 22.72181049382615 vs10vd4ss9sd7 <= 17.149
 + 22.72181049382615 vs4vd10ss8sd9 + 22.72181049382615 vs10vd4ss8sd9 <= 66.952
 + 22.72181049382615 vs4vd10ss9sd8 + 22.72181049382615 vs10vd4ss9sd8 <= 65.833
 + 22.72181049382615 vs4vd10ss8sd10 + 22.72181049382615 vs10vd4ss8sd10 <= 12.702
 + 22.72181049382615 vs4vd10ss10sd8 + 22.72181049382615 vs10vd4ss10sd8 <= 12.702
 + 22.72181049382615 vs4vd10ss9sd10 + 22.72181049382615 vs10vd4ss9sd10 <= 64.607
 + 22.72181049382615 vs4vd10ss10sd9 + 22.72181049382615 vs10vd4ss10sd9 <= 83.316
General
 vs4vd10ss0sd1
 vs4vd10ss1sd0
 vs4vd10ss0sd2
 vs4vd10ss2sd0
 vs4vd10ss0sd3
 vs4vd10ss3sd0
 vs4vd10ss0sd7
 vs4vd10ss7sd0
 vs4vd10ss1sd2
 vs4vd10ss2sd1
 vs4vd10ss1sd5
 vs4vd10ss5sd1
 vs4vd10ss1sd6
 vs4vd10ss6sd1
 vs4vd10ss1sd8
 vs4vd10ss8sd1
 vs4vd10ss2sd3
 vs4vd10ss3sd2
 vs4vd10ss2sd4
 vs4vd10ss4sd2
 vs4vd10ss2sd6
 vs4vd10ss6sd2
 vs4vd10ss3sd4
 vs4vd10ss4sd3
 vs4vd10ss3sd7
 vs4vd10ss7sd3
 vs4vd10ss3sd8
 vs4vd10ss8sd3
 vs4vd10ss4sd5
 vs4vd10ss5sd4
 vs4vd10ss4sd7
 vs4vd10ss7sd4
 vs4vd10ss4sd9
 vs4vd10ss9sd4
 vs4vd10ss5sd6
 vs4vd10ss6sd5
 vs4vd10ss5sd9
 vs4vd10ss9sd5
 vs4vd10ss5sd10
 vs4vd10ss10sd5
 vs4vd10ss6sd10
 vs4vd10ss10sd6
 vs4vd10ss7sd8
 vs4vd10ss8sd7
 vs4vd10ss7sd9
 vs4vd10ss9sd7
 vs4vd10ss8sd9
 vs4vd10ss9sd8
 vs4vd10ss8sd10
 vs4vd10ss10sd8
 vs4vd10ss9sd10
 vs4vd10ss10sd9
 vs10vd4ss0sd1
 vs10vd4ss1sd0
 vs10vd4ss0sd2
 vs10vd4ss2sd0
 vs10vd4ss0sd3
 vs10vd4ss3sd0
 vs10vd4ss0sd7
 vs10vd4ss7sd0
 vs10vd4ss1sd2
 vs10vd4ss2sd1
 vs10vd4ss1sd5
 vs10vd4ss5sd1
 vs10vd4ss1sd6
 vs10vd4ss6sd1
 vs10vd4ss1sd8
 vs10vd4ss8sd1
 vs10vd4ss2sd3
 vs10vd4ss3sd2
 vs10vd4ss2sd4
 vs10vd4ss4sd2
 vs10vd4ss2sd6
 vs10vd4ss6sd2
 vs10vd4ss3sd4
 vs10vd4ss4sd3
 vs10vd4ss3sd7
 vs10vd4ss7sd3
 vs10vd4ss3sd8
 vs10vd4ss8sd3
 vs10vd4ss4sd5
 vs10vd4ss5sd4
 vs10vd4ss4sd7
 vs10vd4ss7sd4
 vs10vd4ss4sd9
 vs10vd4ss9sd4
 vs10vd4ss5sd6
 vs10vd4ss6sd5
 vs10vd4ss5sd9
 vs10vd4ss9sd5
 vs10vd4ss5sd10
 vs10vd4ss10sd5
 vs10vd4ss6sd10
 vs10vd4ss10sd6
 vs10vd4ss7sd8
 vs10vd4ss8sd7
 vs10vd4ss7sd9
 vs10vd4ss9sd7
 vs10vd4ss8sd9
 vs10vd4ss9sd8
 vs10vd4ss8sd10
 vs10vd4ss10sd8
 vs10vd4ss9sd10
 vs10vd4ss10sd9
END